data/solutions/recovery/wellformed/moderate/binding/wellformed_moderate_instance76/10.sol
Elapsed time: 0.02
Upper bound: 1924.0
Planning weighted value: 118026.0
C[0]=1924.0
C[1]=1872.0
C[2]=1858.0
C[3]=1851.0
C[4]=1776.0
C[5]=0.0
y[0]=2
y[1]=2
y[2]=3
y[3]=0
y[4]=2
y[5]=1
y[6]=2
y[7]=3
y[8]=4
y[9]=0
y[10]=0
y[11]=1
y[12]=3
y[13]=1
y[14]=2
y[15]=0
y[16]=4
y[17]=1
y[18]=2
y[19]=0
