data/solutions/recovery/wellformed/moderate/binding/wellformed_moderate_instance76/10.log

Log started (V12.6.3.0) Fri Apr 20 17:49:44 2018

New value for default parallel thread count: 1

Problem '/tmp/tmpVakbNH.pyomo.lp' read.
Read time = 0.00 sec. (0.03 ticks)

Problem name         : /tmp/tmpVakbNH.pyomo.lp
Objective sense      : Minimize
Variables            :     128  [Nneg: 1,  Binary: 120,  General Integer: 7]
Objective nonzeros   :       1
Linear constraints   :      54  [Less: 26,  Equal: 28]
  Nonzeros           :    1873
  RHS nonzeros       :      21

Variables            : Min LB: 0.000000         Max UB: 1.000000       
Objective nonzeros   : Min   : 1.000000         Max   : 1.000000       
Linear constraints   :
  Nonzeros           : Min   : 1.000000         Max   : 971.0000       
  RHS nonzeros       : Min   : 1.000000         Max   : 1.000000       
Tried aggregator 2 times.
MIP Presolve eliminated 40 rows and 102 columns.
Aggregator did 5 substitutions.
Reduced MIP has 9 rows, 21 columns, and 45 nonzeros.
Reduced MIP has 20 binaries, 1 generals, 0 SOSs, and 0 indicators.
Presolve time = 0.00 sec. (0.21 ticks)
Found incumbent of value 3729.000000 after 0.00 sec. (0.27 ticks)
Probing time = 0.00 sec. (0.01 ticks)
Tried aggregator 1 time.
Reduced MIP has 9 rows, 21 columns, and 45 nonzeros.
Reduced MIP has 20 binaries, 1 generals, 0 SOSs, and 0 indicators.
Presolve time = 0.00 sec. (0.03 ticks)
Probing time = 0.00 sec. (0.01 ticks)
Clique table members: 4.
MIP emphasis: balance optimality and feasibility.
MIP search method: dynamic search.
Parallel mode: none, using 1 thread.
Root relaxation solution time = 0.00 sec. (0.02 ticks)

        Nodes                                         Cuts/
   Node  Left     Objective  IInf  Best Integer    Best Bound    ItCnt     Gap

*     0+    0                         3729.0000     1872.0000            49.80%
      0     0     1872.0000     5     3729.0000     1872.0000        5   49.80%
*     0+    0                         2147.0000     1872.0000            12.81%
      0     0     1885.0384     9     2147.0000       Cuts: 8       15   12.20%
*     0+    0                         1924.0000     1885.0384             2.03%
      0     0     1891.0000     6     1924.0000       Cuts: 3       20    1.72%

Repeating presolve.
Presolve time = 0.00 sec. (0.01 ticks)
Represolve time = 0.00 sec. (0.01 ticks)

Root node processing (before b&c):
  Real time             =    0.00 sec. (0.64 ticks)
Sequential b&c:
  Real time             =    0.00 sec. (0.00 ticks)
                          ------------
Total (root+branch&cut) =    0.00 sec. (0.64 ticks)

Solution pool: 3 solutions saved.

MIP - Integer optimal solution:  Objective =  1.9240000000e+03
Solution time =    0.00 sec.  Iterations = 20  Nodes = 0
Deterministic time = 0.64 ticks  (237.75 ticks/sec)


Incumbent solution written to file '/tmp/tmpHFMEsC.cplex.sol'.

Log started (V12.6.3.0) Fri Apr 20 17:52:48 2018

New value for default parallel thread count: 1

Problem '/tmp/tmpeMaawT.pyomo.lp' read.
Read time = 0.00 sec. (0.03 ticks)

Problem name         : /tmp/tmpeMaawT.pyomo.lp
Objective sense      : Minimize
Variables            :     128  [Nneg: 1,  Binary: 120,  General Integer: 7]
Objective nonzeros   :       1
Linear constraints   :      54  [Less: 26,  Equal: 28]
  Nonzeros           :    1873
  RHS nonzeros       :      21

Variables            : Min LB: 0.000000         Max UB: 1.000000       
Objective nonzeros   : Min   : 1.000000         Max   : 1.000000       
Linear constraints   :
  Nonzeros           : Min   : 1.000000         Max   : 971.0000       
  RHS nonzeros       : Min   : 1.000000         Max   : 1.000000       
Tried aggregator 2 times.
MIP Presolve eliminated 40 rows and 102 columns.
Aggregator did 5 substitutions.
Reduced MIP has 9 rows, 21 columns, and 45 nonzeros.
Reduced MIP has 20 binaries, 1 generals, 0 SOSs, and 0 indicators.
Presolve time = 0.00 sec. (0.21 ticks)
Found incumbent of value 3729.000000 after 0.00 sec. (0.27 ticks)
Probing time = 0.00 sec. (0.01 ticks)
Tried aggregator 1 time.
Reduced MIP has 9 rows, 21 columns, and 45 nonzeros.
Reduced MIP has 20 binaries, 1 generals, 0 SOSs, and 0 indicators.
Presolve time = 0.00 sec. (0.03 ticks)
Probing time = 0.00 sec. (0.01 ticks)
Clique table members: 4.
MIP emphasis: balance optimality and feasibility.
MIP search method: dynamic search.
Parallel mode: none, using 1 thread.
Root relaxation solution time = 0.00 sec. (0.02 ticks)

        Nodes                                         Cuts/
   Node  Left     Objective  IInf  Best Integer    Best Bound    ItCnt     Gap

*     0+    0                         3729.0000     1872.0000            49.80%
      0     0     1872.0000     5     3729.0000     1872.0000        5   49.80%
*     0+    0                         2147.0000     1872.0000            12.81%
      0     0     1885.0384     9     2147.0000       Cuts: 8       15   12.20%
*     0+    0                         1924.0000     1885.0384             2.03%
      0     0     1891.0000     6     1924.0000       Cuts: 3       20    1.72%

Repeating presolve.
Presolve time = 0.00 sec. (0.01 ticks)
Represolve time = 0.00 sec. (0.01 ticks)

Root node processing (before b&c):
  Real time             =    0.00 sec. (0.64 ticks)
Sequential b&c:
  Real time             =    0.00 sec. (0.00 ticks)
                          ------------
Total (root+branch&cut) =    0.00 sec. (0.64 ticks)

Solution pool: 3 solutions saved.

MIP - Integer optimal solution:  Objective =  1.9240000000e+03
Solution time =    0.00 sec.  Iterations = 20  Nodes = 0
Deterministic time = 0.64 ticks  (166.22 ticks/sec)


Incumbent solution written to file '/tmp/tmpgOJT9g.cplex.sol'.
